proyfinal/src/viki/013/experimentInOfficeAgust.take6.output/0cdadadc-8895-4cca-8575-d453b669e296.als.out
Reading from standard input... Use '--help' for help.
============================[ Problem Statistics ]=============================
|                                                                             |
|  Number of variables:         87638                                         |
|  Number of clauses:          161767                                         |
|  Parse time:                   0.03 s                                       |
|                                                                             |
============================[ Search Statistics ]==============================
| Conflicts |          ORIGINAL         |          LEARNT          | Progress |
|           |    Vars  Clauses Literals |    Limit  Clauses Lit/Cl |          |
===============================================================================
|       100 |   62128   104473   260562 |    38306      100     20 | 29.108 % |
|       250 |   62128   104473   260562 |    42137      250     59 | 29.108 % |
|       475 |   62076   104369   260312 |    46351      472     61 | 29.168 % |
|       812 |   62076   104265   260062 |    50986      809     54 | 29.168 % |
|      1318 |   62076   104265   260062 |    56084     1315     60 | 29.168 % |
|      2077 |   62076   104265   260062 |    61693     2074     65 | 29.168 % |
|      3216 |   61946   103745   258812 |    67862     3198     70 | 29.316 % |
|      4924 |   61874   103417   258042 |    74649     4896     68 | 29.398 % |
|      7486 |   61874   103417   258042 |    82113     7458     68 | 29.398 % |
|     11330 |   61453   101765   253768 |    90325     9179     76 | 29.879 % |
===============================================================================
restarts              : 62
conflicts             : 14976          (8323 /sec)
decisions             : 47690          (0.00 % random) (26505 /sec)
propagations          : 18920359       (10515336 /sec)
conflict literals     : 1102707        (50.57 % deleted)
Memory used           : 40.33 MB
CPU time              : 1.79931 s

UNSATISFIABLE
